750
400 400
1 320 6
2 320 731
3 320 809
4 320 438
5 319 880
6 319 644
7 318 894
8 318 21
9 317 226
10 317 143
11 316 224
12 316 687
13 316 957
14 316 45
15 314 237
16 314 302
17 314 127
18 314 416
19 313 636
20 313 793
21 312 42
22 311 465
23 311 197
24 311 527
25 311 551
26 310 729
27 310 248
28 310 128
29 309 118
30 308 247
31 308 73
32 308 166
33 308 523
34 307 710
35 306 710
36 306 660
37 306 527
38 306 736
39 306 214
40 306 876
41 306 199
42 306 337
43 306 286
44 306 58
45 305 268
46 304 723
47 304 685
48 304 75
49 303 825
50 303 865
51 303 236
52 302 59
53 302 183
54 302 197
55 301 3
56 301 140
57 301 447
58 301 683
59 300 174
60 300 132
61 300 511
62 300 229
63 299 479
64 299 64
65 298 920
66 298 328
67 298 938
68 297 1
69 297 30
70 297 605
71 297 225
72 297 360
73 297 191
74 296 134
75 296 355
76 295 464
77 295 290
78 295 864
79 295 299
80 294 791
81 294 819
82 294 610
83 294 303
84 294 194
85 293 924
86 293 951
87 293 820
88 292 336
89 292 550
90 292 849
91 292 34
92 292 512
93 292 676
94 291 766
95 291 689
96 291 478
97 290 965
98 290 69
99 290 978
100 290 79
101 290 413
102 289 762
103 289 904
104 289 350
105 288 293
106 287 414
107 287 397
108 287 265
109 286 792
110 286 807
111 286 262
112 285 952
113 284 271
114 284 820
115 284 774
116 284 1000
117 284 704
118 283 900
119 283 924
120 283 26
121 282 713
122 282 511
123 282 319
124 281 744
125 281 710
126 281 737
127 281 570
128 280 76
129 280 9
130 280 41
131 280 915
132 280 407
133 279 973
134 279 978
135 279 919
136 277 289
137 275 664
138 275 965
139 275 268
140 275 713
141 274 402
142 273 115
143 273 179
144 273 360
145 272 824
146 272 239
147 272 882
148 271 786
149 271 99
150 271 593
151 271 866
152 271 574
153 271 954
154 270 752
155 270 480
156 269 507
157 269 472
158 268 529
159 268 264
160 268 895
161 267 49
162 267 348
163 267 254
164 267 71
165 266 377
166 266 787
167 266 154
168 266 580
169 265 825
170 264 36
171 263 248
172 263 907
173 263 464
174 262 207
175 262 54
176 262 462
177 261 812
178 260 896
179 259 643
180 258 196
181 258 119
182 258 684
183 257 215
184 256 182
185 256 361
186 256 190
187 256 668
188 256 601
189 255 271
190 255 863
191 255 231
192 255 289
193 254 870
194 253 563
195 253 470
196 252 176
197 250 532
198 249 49
199 249 137
200 249 560
201 248 155
202 248 39
203 247 57
204 247 224
205 247 542
206 247 733
207 247 495
208 247 302
209 246 999
210 246 214
211 246 132
212 246 159
213 246 653
214 245 689
215 244 282
216 244 593
217 243 84
218 243 177
219 243 898
220 243 609
221 243 404
222 242 765
223 242 8
224 241 243
225 241 425
226 241 581
227 240 751
228 240 149
229 240 60
230 239 641
231 239 244
232 239 729
233 239 764
234 239 731
235 238 266
236 237 573
237 237 614
238 237 993
239 237 351
240 237 243
241 236 495
242 236 650
243 236 558
244 236 867
245 236 345
246 236 561
247 236 441
248 235 587
249 235 511
250 235 770
251 235 378
252 234 712
253 234 803
254 234 128
255 234 984
256 234 779
257 233 71
258 233 334
259 232 906
260 232 295
261 232 40
262 232 418
263 231 510
264 231 878
265 230 849
266 230 446
267 229 206
268 229 635
269 229 913
270 228 839
271 228 993
272 227 893
273 227 241
274 227 973
275 227 25
276 226 588
277 226 473
278 226 186
279 226 691
280 225 256
281 225 19
282 225 597
283 224 689
284 224 66
285 224 802
286 223 583
287 223 391
288 223 166
289 223 292
290 222 598
291 222 538
292 222 573
293 222 838
294 222 764
295 222 225
296 222 418
297 221 110
298 221 643
299 221 616
300 221 656
301 221 725
302 221 999
303 221 259
304 220 18
305 220 64
306 220 450
307 219 290
308 219 745
309 219 28
310 218 634
311 218 335
312 218 881
313 217 909
314 217 961
315 217 515
316 216 89
317 216 638
318 216 13
319 216 747
320 215 151
321 215 622
322 215 506
323 215 221
324 215 730
325 215 482
326 215 620
327 214 835
328 214 702
329 214 877
330 214 649
331 214 481
332 213 530
333 213 481
334 213 110
335 213 750
336 213 46
337 212 261
338 211 823
339 211 426
340 210 754
341 210 290
342 209 534
343 209 273
344 209 21
345 209 757
346 209 473
347 208 487
348 208 98
349 207 298
350 207 892
351 207 800
352 206 674
353 206 600
354 205 248
355 205 510
356 205 373
357 204 146
358 204 275
359 204 285
360 204 429
361 204 790
362 203 940
363 203 702
364 201 66
365 201 865
366 200 974
367 200 720
368 199 631
369 199 245
370 198 965
371 198 267
372 198 269
373 198 493
374 198 154
375 197 79
376 197 747
377 197 469
378 196 800
379 196 924
380 196 936
381 195 535
382 194 18
383 194 128
384 192 490
385 192 726
386 192 862
387 192 477
388 191 48
389 191 907
390 190 479
391 190 565
392 189 619
393 188 529
394 188 220
395 188 947
396 188 399
397 187 699
398 187 578
399 186 981
400 186 31
401 186 424
402 186 655
403 186 699
404 186 230
405 186 310
406 185 858
407 185 276
408 185 299
409 184 615
410 184 216
411 183 344
412 183 261
413 183 602
414 182 636
415 182 21
416 181 560
417 181 395
418 180 406
419 180 201
420 180 571
421 179 524
422 179 335
423 179 381
424 179 839
425 179 871
426 177 655
427 177 947
428 177 367
429 177 790
430 177 139
431 177 650
432 176 968
433 176 796
434 176 207
435 176 40
436 176 964
437 175 67
438 175 715
439 175 116
440 175 470
441 174 978
442 174 981
443 174 7
444 174 331
445 174 430
446 173 408
447 172 986
448 172 696
449 172 878
450 172 126
451 171 419
452 170 48
453 170 771
454 170 680
455 170 316
456 169 123
457 169 340
458 169 95
459 169 850
460 168 762
461 168 652
462 168 164
463 168 744
464 167 375
465 167 510
466 167 472
467 167 150
468 167 658
469 166 947
470 166 839
471 166 579
472 166 289
473 166 863
474 166 848
475 165 344
476 165 222
477 165 912
478 165 20
479 164 31
480 164 397
481 163 943
482 163 959
483 163 868
484 163 784
485 163 170
486 163 479
487 163 220
488 163 958
489 162 295
490 162 609
491 162 195
492 162 334
493 161 585
494 161 21
495 161 639
496 161 442
497 161 712
498 161 507
499 160 712
500 160 357
501 160 258
502 159 922
503 159 771
504 159 163
505 159 87
506 159 440
507 158 92
508 158 692
509 158 852
510 158 87
511 156 114
512 156 693
513 156 200
514 155 600
515 155 196
516 154 274
517 154 530
518 153 854
519 153 23
520 153 418
521 152 426
522 152 7
523 152 481
524 152 204
525 152 432
526 152 668
527 151 150
528 151 902
529 151 576
530 151 290
531 150 72
532 150 284
533 150 195
534 150 150
535 150 343
536 149 128
537 148 107
538 147 271
539 146 564
540 146 658
541 145 380
542 145 987
543 145 64
544 143 915
545 143 313
546 143 319
547 142 627
548 142 542
549 142 903
550 141 539
551 141 409
552 141 521
553 141 992
554 141 373
555 140 737
556 140 556
557 140 611
558 140 274
559 140 626
560 140 349
561 140 684
562 139 829
563 139 642
564 138 476
565 138 391
566 138 402
567 138 351
568 138 836
569 138 248
570 137 676
571 137 964
572 136 411
573 136 900
574 135 565
575 135 819
576 134 229
577 134 984
578 134 778
579 134 232
580 133 606
581 133 241
582 133 330
583 133 213
584 132 418
585 132 813
586 132 842
587 131 958
588 131 501
589 131 152
590 131 729
591 130 485
592 129 99
593 129 286
594 128 188
595 128 208
596 128 245
597 127 646
598 127 488
599 127 870
600 127 343
601 126 424
602 126 859
603 126 72
604 126 911
605 126 401
606 126 935
607 125 620
608 125 7
609 125 885
610 125 213
611 125 835
612 125 616
613 124 172
614 124 123
615 124 601
616 123 54
617 122 815
618 122 965
619 122 935
620 121 600
621 121 918
622 121 185
623 121 265
624 121 749
625 120 165
626 120 126
627 120 745
628 120 207
629 120 395
630 120 545
631 119 107
632 119 138
633 118 401
634 118 291
635 117 531
636 117 706
637 117 984
638 116 701
639 116 171
640 116 956
641 116 622
642 115 87
643 114 750
644 113 325
645 113 445
646 113 261
647 113 229
648 112 82
649 112 299
650 112 340
651 112 174
652 112 690
653 111 365
654 111 845
655 111 220
656 110 95
657 110 376
658 109 806
659 109 851
660 109 700
661 108 904
662 106 198
663 106 385
664 106 419
665 106 49
666 106 750
667 105 579
668 104 55
669 103 214
670 102 985
671 101 940
672 101 713
673 101 250
674 101 805
675 100 923
676 100 562
677 99 937
678 99 785
679 99 29
680 99 243
681 98 996
682 98 566
683 98 860
684 98 249
685 97 66
686 97 185
687 96 12
688 96 805
689 96 133
690 96 94
691 96 480
692 96 634
693 96 205
694 96 767
695 95 844
696 94 799
697 94 980
698 94 945
699 93 456
700 93 699
701 93 167
702 93 131
703 93 697
704 93 456
705 92 806
706 92 664
707 92 301
708 92 167
709 91 348
710 91 294
711 91 37
712 91 378
713 90 399
714 89 863
715 89 867
716 89 335
717 88 67
718 87 850
719 87 331
720 87 544
721 86 438
722 86 395
723 86 944
724 86 895
725 86 962
726 86 201
727 86 696
728 85 4
729 85 910
730 85 156
731 84 942
732 84 37
733 84 844
734 84 623
735 83 166
736 83 168
737 83 312
738 83 152
739 83 125
740 83 46
741 82 977
742 82 946
743 82 802
744 81 988
745 81 35
746 81 586
747 81 941
748 81 255
749 81 27
750 80 512
